% demand
num_movements = 34;
loading_factor = [1950, 2000, 1250, 1800, 1800, 1450, 950, 1650, 1000, 1250, 1350, 1500, 1550, 1100, 1500, 1950, 1000, 850, 1200, 1350, 850, 1200, 950, 1800, 1850, 1050, 950, 1200, 1600, 850, 950, 850, 1250, 1750];
pickup_time = [0, 0, 0, 0, 2, 2, 3, 4, 4, 4, 4, 4, 5, 6, 6, 7, 7, 7, 7, 8, 8, 9, 9, 9, 11, 11, 11, 11, 11, 12, 12, 12, 12, 12];
delivery_time = [2, 2, 3, 2, 3, 3, 4, 5, 5, 7, 5, 6, 9, 7, 7, 9, 8, 11, 8, 11, 11, 11, 11, 11, 12, 12, 14, 12, 12, 14, 13, 14, 14, 14];

% transporter definition
total_capacity = 7000;
num_decks = 3;
capacity = [3000, 1000, 3000];

% ways out of decks
num_ways_out = 1;
paths_out = array3d(decks, ways_out, decks, [
% ways out of deck d1
2, 3, 0, 

% ways out of deck d2
3, 0, 0, 

% ways out of deck d3
0, 0, 0,	

]);

